;; Declare constants and functions
(declare-const bookName1 String)
(declare-const bookId1 Int)
(declare-const isAvailable1 Bool)

(declare-const bookName2 String)
(declare-const bookId2 Int)
(declare-const isAvailable2 Bool)

;; Add constraints and properties
(assert (distinct bookId1 bookId2)) ;; Book IDs should be distinct

(assert (=> (not isAvailable1) (not (and (not isAvailable2) (= bookId1 bookId2)))))
;; If one book is not available, another book with the same ID should also not be available

;; Add additional constraints or properties as needed

;; Generate a model
(check-sat)
(get-model)
